
n_res = 6;
rcap = [29, 30, 246, 238, 239, 212];
rtype = [1, 1, 2, 2, 2, 2];
n_tasks = 50;
modes =  [{1, 2, 3}, {4, 5, 6}, {7, 8, 9}, {10, 11, 12}, {13, 14, 15}, {16, 17, 18}, {19, 20, 21}, {22, 23, 24}, {25, 26, 27}, {28, 29, 30}, {31, 32, 33}, {34, 35, 36}, {37, 38, 39}, {40, 41, 42}, {43, 44, 45}, {46, 47, 48}, {49, 50, 51}, {52, 53, 54}, {55, 56, 57}, {58, 59, 60}, {61, 62, 63}, {64, 65, 66}, {67, 68, 69}, {70, 71, 72}, {73, 74, 75}, {76, 77, 78}, {79, 80, 81}, {82, 83, 84}, {85, 86, 87}, {88, 89, 90}, {91, 92, 93}, {94, 95, 96}, {97, 98, 99}, {100, 101, 102}, {103, 104, 105}, {106, 107, 108}, {109, 110, 111}, {112, 113, 114}, {115, 116, 117}, {118, 119, 120}, {121, 122, 123}, {124, 125, 126}, {127, 128, 129}, {130, 131, 132}, {133, 134, 135}, {136, 137, 138}, {139, 140, 141}, {142, 143, 144}, {145, 146, 147}, {148, 149, 150}];
succ =  [{32, 27, 24, 23, 22, 20, 18, 17, 14}, {32, 30, 24, 23, 22, 21, 17, 16, 14}, {32, 28, 27, 25, 24, 23, 22, 21, 20, 19, 18}, {30, 22, 16, 8}, {33, 32, 30, 24, 22, 17, 14}, {27, 24, 21, 8}, {32, 27, 25, 24, 20, 17}, {32, 29, 28, 25, 23, 19}, {38, 32, 30, 26, 24, 16}, {33, 30, 28, 27, 19}, {38, 33, 30, 29, 28, 26, 24}, {38, 33, 31, 30, 29, 28, 26}, {38, 36, 32, 30, 29, 28, 27}, {28, 25, 19}, {50, 38, 35, 30, 27, 26}, {49, 48, 46, 33, 31, 29, 27}, {49, 47, 38, 31, 29, 26}, {47, 38, 37, 31, 29, 26}, {50, 45, 38, 37, 35, 31, 26}, {46, 44, 36, 34, 33, 30, 29}, {49, 47, 46, 43, 38, 34, 31, 29}, {49, 48, 46, 45, 43, 41, 40, 38, 37, 36, 35, 34}, {45, 43, 37, 35, 34, 33, 31}, {50, 48, 45, 43, 41, 40, 37, 36, 34}, {49, 48, 47, 46, 45, 43, 39, 31}, {48, 46, 44, 43, 41, 40, 36, 34}, {47, 45, 43, 42, 41, 40, 37, 34}, {49, 48, 46, 45, 41, 40, 39}, {50, 45, 42, 35}, {49, 43, 41, 40}, {44, 41, 40}, {43, 42, 39}, {47, 42}, {39}, {39}, {42}, {44}, {39}, {}, {}, {}, {}, {}, {}, {}, {}, {}, {}, {}, {}];
n_opt = 150;
dur = [1, 2, 3, 3, 8, 9, 2, 3, 8, 3, 4, 10, 2, 3, 8, 2, 4, 8, 3, 6, 10, 2, 3, 6, 5, 7, 9, 1, 4, 7, 1, 9, 10, 1, 3, 4, 7, 9, 10, 1, 4, 10, 1, 3, 10, 1, 4, 6, 2, 3, 10, 5, 7, 8, 1, 2, 5, 4, 5, 10, 1, 2, 3, 1, 4, 7, 2, 8, 10, 1, 2, 9, 1, 5, 6, 4, 5, 8, 4, 8, 9, 1, 9, 10, 1, 2, 4, 2, 3, 10, 4, 5, 7, 6, 7, 8, 6, 7, 9, 7, 9, 10, 1, 7, 9, 2, 8, 9, 5, 6, 9, 1, 8, 9, 5, 6, 9, 5, 6, 10, 2, 3, 8, 1, 3, 9, 1, 3, 4, 5, 8, 9, 1, 3, 4, 3, 4, 10, 1, 7, 10, 2, 3, 6, 1, 3, 9, 5, 6, 9];
rreq = [|10, 7, 6, 6, 4, 1, 9, 5, 2, 10, 7, 6, 8, 7, 6, 9, 6, 5, 5, 5, 5, 6, 4, 1, 1, 1, 1, 8, 4, 2, 4, 4, 3, 8, 7, 6, 1, 1, 1, 7, 4, 4, 7, 5, 2, 8, 5, 4, 8, 7, 4, 9, 5, 5, 4, 3, 2, 6, 5, 4, 5, 4, 4, 2, 2, 2, 7, 6, 5, 7, 3, 1, 5, 5, 5, 6, 5, 2, 6, 5, 4, 7, 6, 5, 6, 4, 3, 3, 2, 1, 10, 9, 9, 7, 7, 6, 7, 5, 4, 3, 3, 3, 9, 6, 6, 6, 3, 2, 6, 5, 5, 6, 6, 6, 6, 5, 5, 3, 2, 2, 6, 4, 4, 7, 5, 3, 4, 4, 4, 6, 6, 6, 5, 4, 2, 7, 7, 7, 10, 8, 7, 10, 5, 3, 8, 6, 4, 9, 9, 9
 |6, 6, 6, 6, 5, 5, 4, 3, 2, 4, 3, 2, 10, 7, 6, 10, 9, 9, 9, 9, 9, 6, 6, 2, 9, 8, 6, 6, 5, 5, 6, 5, 5, 8, 7, 5, 5, 4, 3, 4, 4, 4, 7, 7, 7, 6, 6, 3, 7, 7, 7, 7, 5, 5, 6, 4, 4, 6, 6, 6, 9, 9, 7, 9, 7, 6, 8, 7, 6, 7, 6, 6, 8, 5, 2, 8, 7, 6, 3, 3, 3, 3, 3, 3, 9, 5, 3, 7, 6, 4, 9, 7, 5, 8, 6, 5, 9, 7, 4, 5, 5, 3, 6, 5, 4, 10, 9, 9, 7, 7, 7, 5, 4, 4, 4, 2, 2, 7, 5, 4, 7, 7, 7, 5, 5, 3, 8, 7, 7, 6, 5, 5, 9, 7, 7, 9, 9, 9, 9, 4, 4, 8, 8, 8, 5, 3, 3, 10, 9, 8
 |8, 5, 3, 7, 5, 4, 9, 9, 9, 10, 7, 3, 9, 8, 4, 5, 5, 4, 6, 6, 6, 3, 1, 1, 5, 4, 3, 7, 5, 4, 6, 5, 4, 7, 7, 7, 6, 5, 2, 7, 7, 4, 9, 9, 9, 2, 2, 1, 3, 3, 3, 10, 9, 8, 10, 5, 2, 4, 3, 2, 8, 6, 4, 8, 7, 5, 4, 2, 2, 4, 3, 2, 10, 8, 8, 6, 5, 5, 4, 3, 2, 6, 5, 4, 7, 6, 5, 5, 3, 3, 7, 4, 2, 8, 6, 6, 7, 5, 3, 10, 9, 8, 5, 4, 4, 8, 8, 6, 2, 2, 1, 2, 2, 2, 6, 4, 2, 9, 7, 5, 3, 3, 3, 8, 8, 7, 6, 5, 4, 8, 7, 5, 7, 6, 5, 8, 7, 7, 10, 8, 8, 8, 6, 5, 9, 8, 7, 7, 6, 4
 |3, 2, 1, 9, 7, 7, 5, 5, 4, 8, 5, 4, 7, 6, 3, 8, 6, 3, 6, 6, 6, 7, 5, 2, 5, 3, 1, 8, 8, 8, 5, 4, 4, 7, 6, 6, 8, 8, 6, 8, 6, 5, 6, 5, 4, 8, 6, 4, 9, 6, 3, 9, 7, 4, 5, 5, 4, 4, 2, 2, 7, 7, 7, 4, 3, 3, 6, 5, 2, 7, 5, 2, 3, 2, 2, 8, 6, 4, 6, 4, 3, 3, 3, 2, 4, 4, 2, 8, 6, 5, 4, 2, 2, 7, 4, 2, 9, 8, 8, 9, 9, 8, 9, 9, 8, 8, 7, 5, 9, 8, 8, 5, 4, 3, 6, 6, 6, 8, 6, 5, 3, 3, 1, 5, 3, 3, 10, 6, 6, 9, 7, 7, 7, 6, 4, 2, 2, 2, 6, 6, 5, 8, 7, 7, 5, 5, 1, 9, 4, 4
 |10, 7, 4, 8, 7, 5, 3, 2, 2, 9, 7, 7, 9, 8, 8, 4, 4, 3, 7, 7, 5, 9, 8, 8, 6, 4, 3, 4, 2, 1, 7, 6, 5, 4, 4, 3, 6, 5, 5, 4, 4, 4, 9, 7, 6, 9, 7, 6, 8, 5, 5, 7, 6, 4, 7, 4, 2, 2, 2, 2, 4, 3, 2, 8, 7, 6, 9, 7, 4, 9, 6, 6, 5, 3, 1, 2, 2, 2, 4, 4, 4, 9, 9, 8, 5, 4, 3, 8, 4, 3, 9, 9, 9, 6, 5, 5, 6, 5, 4, 10, 6, 3, 3, 2, 2, 5, 4, 2, 8, 7, 7, 2, 1, 1, 4, 4, 4, 4, 3, 3, 6, 5, 5, 5, 2, 2, 6, 6, 6, 7, 7, 7, 8, 7, 7, 4, 4, 4, 4, 4, 4, 6, 6, 6, 7, 5, 5, 3, 3, 3
 |10, 7, 6, 8, 5, 1, 7, 6, 4, 6, 5, 5, 9, 6, 2, 7, 6, 5, 8, 5, 2, 7, 4, 2, 8, 6, 5, 2, 1, 1, 6, 5, 5, 8, 7, 5, 7, 5, 5, 6, 5, 4, 5, 3, 2, 9, 5, 2, 3, 3, 2, 8, 5, 3, 7, 7, 6, 9, 8, 7, 6, 6, 6, 8, 5, 1, 3, 2, 2, 1, 1, 1, 5, 5, 1, 9, 6, 3, 5, 4, 3, 4, 3, 2, 8, 6, 5, 7, 6, 6, 7, 5, 3, 7, 5, 2, 7, 4, 3, 4, 2, 1, 6, 5, 3, 5, 4, 3, 10, 7, 4, 4, 3, 3, 3, 3, 3, 8, 8, 7, 5, 4, 4, 5, 5, 4, 8, 7, 5, 5, 4, 4, 6, 4, 3, 5, 3, 2, 9, 6, 2, 9, 9, 8, 7, 4, 2, 6, 5, 5|];